Gurobi Optimizer version 9.1.2 build v9.1.2rc0 (linux64)
Thread count: 36 physical cores, 72 logical processors, using up to 32 threads
Optimize a model with 12 rows, 57 columns and 590 nonzeros
Model fingerprint: 0xf32eec78
Model has 47 quadratic constraints
Coefficient statistics:
  Matrix range     [2e-05, 3e+00]
  QMatrix range    [1e+00, 1e+00]
  QLMatrix range   [1e+00, 1e+00]
  Objective range  [8e-03, 7e-01]
  Bounds range     [1e+00, 1e+00]
  RHS range        [1e+00, 1e+00]
Presolve removed 9 rows and 0 columns

Continuous model is non-convex -- solving as a MIP.

Presolve removed 9 rows and 0 columns
Presolve time: 0.00s
Presolved: 189 rows, 57 columns, 443 nonzeros
Presolved model has 47 bilinear constraint(s)
Variable types: 57 continuous, 0 integer (0 binary)

Root relaxation: objective -1.743721e+00, 44 iterations, 0.00 seconds

    Nodes    |    Current Node    |     Objective Bounds      |     Work
 Expl Unexpl |  Obj  Depth IntInf | Incumbent    BestBd   Gap | It/Node Time

     0     0   -1.74372    0   38          -   -1.74372      -     -    0s
H    0     0                       0.6147548   -1.74372   384%     -    0s
     0     0   -1.64739    0    1    0.61475   -1.64739   368%     -    0s
H    0     0                      -1.6450460   -1.64739  0.14%     -    0s
     0     0     cutoff    0        -1.64505   -1.64505  0.00%     -    0s

Cutting planes:
  RLT: 25
  BQP: 3

Explored 1 nodes (76 simplex iterations) in 0.01 seconds
Thread count was 32 (of 72 available processors)

Solution count 2: -1.64505 0.614755 
No other solutions better than -1.64505

Optimal solution found (tolerance 1.00e-04)
Best objective -1.645045978473e+00, best bound -1.645045978473e+00, gap 0.0000%

User-callback calls 78, time in user-callback 0.00 sec
Gurobi Optimizer version 9.1.2 build v9.1.2rc0 (linux64)
Thread count: 36 physical cores, 72 logical processors, using up to 32 threads
Optimize a model with 24 rows, 120 columns and 2480 nonzeros
Model fingerprint: 0x07ba3999
Model has 100 quadratic constraints
Coefficient statistics:
  Matrix range     [8e-06, 4e+00]
  QMatrix range    [1e+00, 1e+00]
  QLMatrix range   [1e+00, 1e+00]
  Objective range  [5e-03, 1e+00]
  Bounds range     [1e+00, 1e+00]
  RHS range        [1e+00, 1e+00]
Presolve removed 17 rows and 0 columns

Continuous model is non-convex -- solving as a MIP.

Presolve removed 17 rows and 0 columns
Presolve time: 0.00s
Presolved: 407 rows, 120 columns, 1232 nonzeros
Presolved model has 100 bilinear constraint(s)
Variable types: 120 continuous, 0 integer (0 binary)

Root relaxation: objective -7.422262e+00, 145 iterations, 0.00 seconds

    Nodes    |    Current Node    |     Objective Bounds      |     Work
 Expl Unexpl |  Obj  Depth IntInf | Incumbent    BestBd   Gap | It/Node Time

     0     0   -7.42226    0   84          -   -7.42226      -     -    0s
H    0     0                       1.5498836   -7.42226   579%     -    0s
     0     0   -5.20314    0  100    1.54988   -5.20314   436%     -    0s
H    0     0                       1.2831227   -5.20314   506%     -    0s
     0     0   -5.19256    0  100    1.28312   -5.19256   505%     -    0s
     0     0   -4.56376    0   90    1.28312   -4.56376   456%     -    0s
H    0     0                      -0.1838954   -4.56376  2382%     -    0s
     0     0   -4.48555    0   90   -0.18390   -4.48555  2339%     -    0s
     0     0   -4.27267    0   90   -0.18390   -4.27267  2223%     -    0s
     0     0   -4.27046    0   90   -0.18390   -4.27046  2222%     -    0s
     0     0   -4.21543    0  100   -0.18390   -4.21543  2192%     -    0s
H    0     0                      -0.3917237   -4.21543   976%     -    0s
     0     0   -4.21356    0   90   -0.39172   -4.21356   976%     -    0s
     0     0   -4.20926    0  100   -0.39172   -4.20926   975%     -    0s
     0     0   -4.20910    0  100   -0.39172   -4.20910   975%     -    0s
     0     0   -4.20559    0   90   -0.39172   -4.20559   974%     -    0s
H    0     0                      -1.0213080   -4.20559   312%     -    0s
H    0     0                      -1.9343712   -4.20559   117%     -    0s
H    0     0                      -1.9634043   -4.20559   114%     -    0s
     0     2   -4.20559    0   90   -1.96340   -4.20559   114%     -    0s
*  608   678              23      -2.6542287   -3.70023  39.4%  31.3    0s
*  743   684              25      -2.6543534   -3.70023  39.4%  28.5    0s
*  745   684              26      -2.6543551   -3.70023  39.4%  28.4    0s
*  890   834              18      -3.5002541   -3.70023  5.71%  26.3    0s

Cutting planes:
  RLT: 75
  BQP: 14
  PSD: 15

Explored 1279 nodes (27423 simplex iterations) in 0.45 seconds
Thread count was 32 (of 72 available processors)

Solution count 10: -3.50025 -2.65436 -2.65435 ... 1.28312
No other solutions better than -3.50025

Optimal solution found (tolerance 1.00e-04)
Best objective -3.500254116464e+00, best bound -3.500254116464e+00, gap 0.0000%

User-callback calls 2800, time in user-callback 0.00 sec



objective value: -3.500254116463569
objective bound: -3.500254116463569
x_opt: [0.0, 1.0, 1.0, 0.45126240317751454, 1.0, 0.0, 0.07440911739482663, 0.0, 0.17893850255691715, 1.0, 0.0, 0.002619817970732615, 1.0, 1.0, 1.0, 0.0, 0.0, 0.0, 0.0, 0.0]
GUROBI solution time: 0.4526100158691406




